17	4	3
11	17	16	15	34	41	19	
0	0	0	0	0	8	10	8	7	8	3	3	2	3	4
4	8	4	9	5	8	7	9	2	1	1	3	5	9	17
4	5	3	6	2	5	8	5	6	1	3	3	8	14	17
8	5	0	0	9	3	6	6	2	1	5	2	7	15
2	0	1	4	0	5	3	1	7	2	6	2	6	11
175	3	0	9	0	6	10	6	3	6	3	1	17
100	0	8	1	6	6	3	10	4	5	1	1	10
25	3	3	5	3	4	10	8	8	5	8	1	17
225	4	7	1	4	10	8	3	6	9	4	3	11	13	17
200	0	6	0	6	10	3	7	1	9	8	1	17
125	1	7	2	8	7	5	7	2	7	3	2	12	17
250	4	5	10	3	5	3	5	5	6	10	1	17
10	1	7	0	8	5	9	9	2	7	3	1	16
10	7	1	0	0	10	7	10	3	2	9	1	17
4	0	1	4	3	7	2	1	3	2	10	1	17
3	5	0	7	5	1	9	4	8	10	1	1	17
0	0	0	0	0	10	5	4	5	9	9	0
